p edge 20 103 10
v 1 5
v 2 11 13
v 2 4 12
v 2 1 16
v 2 8 15
v 2 6 17
v 1 18
v 3 2 3 20
v 3 7 9 19
v 2 10 14
e 1 3
e 1 5
e 1 8
e 1 12
e 1 13
e 1 14
e 1 15
e 1 16
e 1 17
e 1 19
e 1 20
e 2 14
e 2 15
e 2 20
e 3 4
e 3 5
e 3 6
e 3 7
e 3 8
e 3 10
e 3 11
e 3 12
e 3 13
e 3 14
e 3 15
e 3 17
e 3 19
e 4 6
e 4 7
e 4 8
e 4 10
e 4 11
e 4 12
e 4 14
e 4 16
e 4 17
e 5 8
e 5 9
e 5 12
e 5 16
e 6 8
e 6 9
e 6 10
e 6 11
e 6 14
e 6 15
e 6 16
e 6 18
e 6 20
e 7 8
e 7 9
e 7 11
e 7 12
e 7 16
e 7 17
e 7 18
e 7 19
e 7 20
e 8 10
e 8 12
e 8 13
e 8 15
e 8 16
e 8 19
e 8 20
e 9 10
e 9 11
e 9 13
e 9 14
e 9 15
e 9 18
e 9 20
e 10 13
e 10 14
e 10 16
e 10 17
e 10 18
e 10 19
e 10 20
e 11 12
e 11 13
e 11 14
e 11 16
e 11 17
e 11 18
e 11 20
e 12 14
e 12 17
e 13 15
e 13 16
e 13 17
e 13 18
e 14 17
e 14 19
e 15 17
e 15 18
e 15 19
e 16 17
e 16 18
e 16 19
e 17 18
e 17 19
e 17 20
